unsat
(:SPACER-conj                         1
 :SPACER-inductive-gen                12
 :SPACER-inductive-gen-weaken-fail    17
 :SPACER-inductive-level              6
 :SPACER-max-depth                    8
 :SPACER-max-query-lvl                8
 :SPACER-non-local-gen                10
 :SPACER-num-active-lemmas            10
 :SPACER-num-ctp-blocked              10
 :SPACER-num-invariants               6
 :SPACER-num-is_invariant             31
 :SPACER-num-lemmas                   31
 :SPACER-num-pobs                     6
 :SPACER-num-propagations             6
 :SPACER-num-queries                  14
 :SPACER-subsume-pob                  1
 :SPACER-subsume-success              2
 :added-eqs                           1350
 :arith-assert-diseq                  466
 :arith-assert-lower                  2392
 :arith-assert-upper                  1274
 :arith-bound-prop                    200
 :arith-conflicts                     26
 :arith-eq-adapter                    308
 :arith-fixed-eqs                     270
 :arith-num-rows                      46
 :arith-offset-eqs                    142
 :arith-pivots                        264
 :arith-row-summations                1584
 :arith-tableau-max-columns           82
 :arith-tableau-max-rows              46
 :conflicts                           244
 :decisions                           1634
 :del-clause                          360
 :final-checks                        78
 :iuc_solver.num_proxies              30
 :max-memory                          31.46
 :memory                              31.01
 :minimized-lits                      2
 :mk-bool-var                         1392
 :mk-clause                           1050
 :num-allocs                          13232945
 :num-checks                          232
 :pool_solver.checks                  116
 :pool_solver.checks.sat              39
 :propagations                        8122
 :rlimit-count                        67787
 :time                                0.09
 :time.iuc_solver.get_iuc             0.01
 :time.iuc_solver.get_iuc.hyp_reduce1 0.00
 :time.iuc_solver.get_iuc.hyp_reduce2 0.01
 :time.iuc_solver.get_iuc.learn_core  0.00
 :time.pool_solver.proof              0.00
 :time.pool_solver.smt.total          0.03
 :time.pool_solver.smt.total.sat      0.01
 :time.spacer.init_rules              0.00
 :time.spacer.mbp                     0.00
 :time.spacer.solve                   0.08
 :time.spacer.solve.propagate         0.01
 :time.spacer.solve.reach             0.06
 :time.spacer.solve.reach.children    0.00
 :time.spacer.solve.reach.cluster     0.01
 :time.spacer.solve.reach.gen.global  0.01
 :time.spacer.solve.reach.gen.ind     0.00)
(:max-memory   31.46
 :memory       31.01
 :num-allocs   13232945
 :rlimit-count 67787
 :time         0.09
 :total-time   0.11)
